112
station d=-1.39 A  E=-6264.165010 eV
O   31.358418  27.084262  27.407475
C   31.247732  26.032251  26.818496
N   32.302547  25.251116  26.507316
C   33.645252  25.709617  26.843688
C   34.697570  25.091064  25.960910
C   35.132399  25.700457  24.787895
C   36.082927  25.081057  23.972824
C   36.473548  25.774647  22.696085
F   37.344455  25.076100  21.960315
F   35.399391  25.993765  21.910374
F   37.026265  26.976533  22.914974
C   36.626889  23.857150  24.319590
C   36.216809  23.271343  25.510899
C   36.806492  21.938003  25.882664
F   38.128201  21.884669  25.667452
F   36.610941  21.616840  27.167780
F   36.268878  20.936958  25.157215
C   35.267765  23.873229  26.321491
C   29.879846  25.624387  26.322590
C   29.012158  26.668197  26.015978
C   27.737821  26.422699  25.538639
F   26.967261  27.465643  25.236929
C   27.254297  25.119868  25.370633
C   25.915632  24.867431  24.813327
O   25.133469  25.667510  24.398888
O   25.659238  23.509894  24.782988
C   24.424987  23.110864  24.356748
C   24.316368  22.282029  23.240164
F   25.423318  21.913924  22.593378
C   23.076351  21.829754  22.803006
F   22.991639  21.029493  21.742029
C   21.921202  22.220729  23.475359
F   20.732074  21.793727  23.058704
C   22.013679  23.050737  24.589503
F   20.911855  23.410905  25.241575
C   23.259736  23.489422  25.026692
F   23.348331  24.249818  26.115245
C   28.106890  24.071881  25.720883
C   29.380871  24.334371  26.181743
F   30.149724  23.278616  26.514563
H   32.207087  24.351560  26.061909
H   33.635525  26.798204  26.734946
H   33.844155  25.482495  27.897968
H   34.742706  26.667061  24.501087
H   37.360573  23.375533  23.691781
H   34.973876  23.402895  27.245437
H   29.347764  27.685151  26.152799
H   27.777591  23.050046  25.624241
C   31.066198  27.391726  32.788878
C   30.674376  26.076157  32.891049
C   31.082396  25.160919  31.931115
C   31.871419  25.549930  30.862158
C   32.241006  26.911382  30.730311
C   31.843183  27.802655  31.715218
O   32.998609  27.239077  29.645372
C   33.545608  28.532810  29.525078
C   32.610346  29.691279  29.095485
O   32.094240  29.688957  27.790428
C   33.017872  29.772265  26.732453
C   32.266439  29.413419  25.450392
O   33.194560  28.967357  24.477481
C   32.600669  28.502067  23.288951
C   32.087548  27.052865  23.390344
O   30.667910  27.043333  23.419298
C   30.013291  25.904914  23.046734
C   28.753390  26.087329  22.483661
C   27.990591  25.015166  22.064527
C   28.490794  23.731771  22.182722
C   29.733019  23.528273  22.757294
C   30.493926  24.593974  23.220919
O   31.681227  24.429351  23.906574
C   32.510733  23.329403  23.614163
C   32.291336  22.088978  24.499261
O   33.033298  22.219552  25.695453
C   33.162980  21.019972  26.445423
C   32.087384  20.827075  27.534424
O   32.506646  21.238809  28.816187
C   32.845798  22.607446  28.927379
C   32.065895  23.297358  30.051403
O   32.345284  24.680255  29.913139
H   30.772097  28.112789  33.535993
H   30.059286  25.746045  33.713670
H   30.779742  24.131183  32.033146
H   32.138278  28.837838  31.660912
H   34.010872  28.833993  30.474631
H   34.342141  28.416715  28.784906
H   33.180877  30.619936  29.272569
H   31.714628  29.695195  29.718273
H   33.451956  30.782178  26.672921
H   33.841182  29.056448  26.847595
H   31.707127  30.277549  25.068914
H   31.554649  28.621725  25.703887
H   31.771168  29.151770  22.983799
H   33.391265  28.553899  22.536538
H   32.442506  26.477717  22.528594
H   32.480406  26.598143  24.303759
H   28.396158  27.099165  22.377742
H   27.018091  25.186892  21.630753
H   27.917291  22.884997  21.840608
H   30.107075  22.521458  22.858434
H   33.536021  23.676650  23.769412
H   32.390655  23.040128  22.564155
H   32.646756  21.207339  23.946465
H   31.226250  21.952523  24.722928
H   33.161234  20.162459  25.763924
H   34.137646  21.061972  26.936210
H   31.170173  21.348911  27.240473
H   31.870640  19.763175  27.650022
H   32.628541  23.136275  27.997640
H   33.918041  22.690116  29.147856
H   30.992432  23.101420  29.930297
H   32.392057  22.919454  31.026962
