112
dethread3cf MD seed: strong-side well (global min), d=-3.53 A (flipped convention), E=-6494.070208 eV, tblite scan fmax=0.01, contact 2.07 A
O   26.611299  29.073158  25.902280
C   26.670174  27.873591  25.722404
N   25.628794  27.078059  25.470631
C   24.277210  27.605792  25.424469
C   23.325565  26.727862  26.186797
C   22.930237  27.053945  27.478472
C   22.063161  26.218912  28.166070
C   21.553304  26.573532  29.537905
F   21.884016  25.665586  30.465882
F   20.203654  26.627930  29.548347
F   21.972143  27.763855  29.974277
C   21.574639  25.056014  27.583561
C   21.956413  24.750409  26.284986
C   21.486378  23.470871  25.654108
F   22.312045  22.443480  25.964169
F   21.469310  23.523065  24.313227
F   20.264905  23.100187  26.045607
C   22.828221  25.577548  25.590436
C   27.986476  27.123492  25.805553
C   28.725651  27.136664  26.983042
F   28.292880  27.824879  28.036387
C   29.910237  26.416075  27.094624
F   30.578070  26.431655  28.247399
C   30.412823  25.702211  26.008664
C   31.682373  24.924725  26.093950
O   32.532756  24.866456  25.261934
O   31.716885  24.236847  27.268223
C   32.840766  23.506810  27.554677
C   32.728176  22.129492  27.741585
F   31.535578  21.551492  27.606198
C   33.841306  21.361044  28.065463
F   33.717783  20.048725  28.247061
C   35.088558  21.968701  28.190411
F   36.156521  21.237565  28.494801
C   35.214526  23.342646  28.000857
F   36.403063  23.924045  28.129817
C   34.094039  24.106070  27.684643
F   34.211962  25.421029  27.528025
C   29.701032  25.733993  24.810124
F   30.141321  25.047219  23.756955
C   28.499768  26.427718  24.719189
F   27.842924  26.429601  23.557686
H   25.762485  26.101406  25.229449
H   24.302243  28.599204  25.875862
H   23.966385  27.674584  24.376948
H   23.296523  27.958144  27.938204
H   20.895975  24.413887  28.124407
H   23.109359  25.345781  24.575967
C   21.191581  25.297090  20.800524
C   20.674251  26.572314  20.729512
C   21.381167  27.644765  21.256098
C   22.613106  27.443063  21.853179
C   23.144515  26.137108  21.921470
C   22.425526  25.078447  21.397103
O   24.365695  26.033206  22.539478
C   25.201126  24.942938  22.228984
C   25.126600  23.803346  23.250057
O   25.817850  24.192268  24.420905
C   25.890973  23.172680  25.394375
C   27.006406  23.508707  26.389394
O   26.825725  24.720439  27.080517
C   25.843731  24.676712  28.099022
C   25.912589  25.988420  28.873689
O   24.795832  26.024758  29.738667
C   24.765401  27.034354  30.681812
C   24.458905  26.657316  31.979826
C   24.331643  27.597995  32.985567
C   24.528347  28.932363  32.691421
C   24.830130  29.326678  31.399179
C   24.944397  28.396202  30.373886
O   25.203080  28.708502  29.067535
C   25.404487  30.054056  28.684247
C   24.078549  30.818724  28.513430
O   23.446219  30.595361  27.273702
C   23.956601  31.346133  26.185725
C   22.883627  31.334379  25.083339
O   23.385516  31.678720  23.809530
C   23.996110  30.617250  23.109448
C   22.956095  29.759489  22.361964
O   23.393128  28.417577  22.407930
H   20.642831  24.460808  20.397707
H   19.716378  26.747643  20.265297
H   20.965222  28.636777  21.186070
H   22.813243  24.073481  21.454504
H   26.218618  25.340474  22.240133
H   24.979897  24.552849  21.230415
H   25.605874  22.911134  22.820883
H   24.083752  23.551030  23.487457
H   26.136887  22.212892  24.919990
H   24.925914  23.061976  25.907918
H   27.943119  23.630385  25.839603
H   27.108916  22.672866  27.094802
H   26.027235  23.826657  28.769876
H   24.834839  24.571875  27.679654
H   26.844499  26.040100  29.449953
H   25.891594  26.822438  28.167387
H   24.303704  25.607888  32.173655
H   24.084465  27.286516  33.988122
H   24.436788  29.681437  33.462994
H   24.956009  30.377645  31.193888
H   25.925457  29.990452  27.725388
H   26.056079  30.568220  29.397285
H   23.361916  30.471529  29.264551
H   24.257378  31.893512  28.656571
H   24.892843  30.911804  25.809871
H   24.164423  32.377778  26.498167
H   22.418804  30.340590  25.077137
H   22.112675  32.073455  25.312408
H   24.682726  31.083971  22.400438
H   24.574013  29.969453  23.774648
H   22.845604  30.093937  21.323875
H   21.984504  29.862418  22.865311
