114
rotaxane at left well d=-6.40 A; E_rel=+0.80 kcal/mol; barrier=11.2 kcal/mol (scan-relaxed, MD-ready)
O  -4.235784  2.212886 -2.326417
C  -4.080398  1.256576 -1.589290
C  -2.704861  0.932327 -1.047672
C  -2.343118 -0.202989 -0.333358
F  -3.265759 -1.156783 -0.049278
C  -1.068236 -0.421504  0.130461
C  -1.699807  1.866472 -1.291479
C  -0.424764  1.657990 -0.809921
F   0.510101  2.611521 -1.044186
C  -0.074378  0.525147 -0.091540
C   1.244127  0.222899  0.575477
N   2.048176  1.230574  0.941997
C   3.070195  0.968316  1.942611
C   4.173118  0.061138  1.443023
C   4.946322  0.412011  0.338248
C   5.937001 -0.446562 -0.106964
C   6.804985 -0.087917 -1.281534
F   6.666357 -0.967603 -2.290770
F   8.111122 -0.102929 -0.939762
F   6.535155  1.127882 -1.767543
C   6.168903 -1.663865  0.520323
C   5.398362 -2.004920  1.614480
C   5.618440 -3.303817  2.335800
F   6.362943 -4.163584  1.626855
F   6.245519 -3.115181  3.514623
F   4.452672 -3.916967  2.616989
C   4.410202 -1.145769  2.076304
O   1.511338 -0.932475  0.854687
N  -5.104992  0.453426 -1.213525
C  -6.464304  0.715729 -1.652631
C  -7.313287 -0.533785 -1.614380
C  -8.621210 -0.485910 -1.152611
C  -9.417609 -1.627133 -1.152603
C  -10.832301 -1.515033 -0.655166
F  -10.879697 -0.948581  0.564527
F  -11.437159 -2.707249 -0.568007
F  -11.578618 -0.744996 -1.468222
C  -8.915922 -2.834434 -1.601664
C  -7.606624 -2.882396 -2.060410
C  -7.024887 -4.196330 -2.506969
F  -7.962829 -5.015109 -3.007710
F  -6.085438 -4.032033 -3.451720
F  -6.441469 -4.845805 -1.481812
C  -6.812021 -1.749183 -2.071910
H  -0.834430 -1.307581  0.709820
H  -1.942268  2.755058 -1.858754
H   1.840171  2.194357  0.736476
H   3.468107  1.933625  2.246298
H   2.603356  0.503828  2.816395
H   4.763745  1.344691 -0.185149
H   6.935036 -2.333565  0.154206
H   3.797548 -1.437976  2.920778
H  -4.938804 -0.286948 -0.554053
H  -6.411106  1.108254 -2.669436
H  -6.927071  1.494789 -1.040965
H  -9.029074  0.448691 -0.785908
H  -9.530144 -3.723219 -1.596123
H  -5.797406 -1.809702 -2.445099
O  -0.893840  2.953523  3.603444
C   0.480037  3.016993  3.275498
C   0.750766  4.046416  2.179870
O   2.091998  3.851775  1.756854
C   2.600130  4.794720  0.827960
C   3.886861  4.237774  0.226078
O   3.700946  3.364855 -0.881806
C   3.441456  4.124664 -2.053434
C   3.230261  3.219357 -3.251256
O   4.276631  2.278471 -3.324823
C   3.883697  0.963129 -3.680105
C   2.923125  0.306945 -2.680022
O   3.266836 -1.064473 -2.578996
C   2.217064 -1.930119 -2.164872
C   2.785467 -2.934553 -1.168337
O   1.897451 -4.012264 -0.906552
C   0.753694 -3.689140 -0.133277
C   1.050527 -3.638312  1.362042
O  -0.008712 -2.933701  2.002803
C   0.371484 -2.373086  3.241699
C  -0.699476 -1.431357  3.741226
O  -0.587876 -0.141395  3.147564
C  -1.737000  0.639762  3.427215
C  -1.649856  2.032537  2.833511
H   0.845033  2.038334  2.960051
H   1.016568  3.301197  4.181685
H   0.061629  3.901556  1.336194
H   0.604923  5.062273  2.562143
H   1.858096  4.988855  0.045218
H   2.807797  5.741208  1.340474
H   4.534621  5.070528 -0.071444
H   4.412295  3.669636  0.996040
H   4.302687  4.779911 -2.237723
H   2.553388  4.756874 -1.938043
H   3.192128  3.838166 -4.156063
H   2.262355  2.717446 -3.149337
H   3.456061  0.949129 -4.689834
H   4.799095  0.374660 -3.694540
H   3.025328  0.806966 -1.707871
H   1.880559  0.406156 -3.006089
H   1.811951 -2.463867 -3.032053
H   1.407777 -1.355968 -1.706912
H   3.679575 -3.384327 -1.601347
H   3.071412 -2.410244 -0.251782
H   0.013552 -4.460033 -0.350969
H   0.337613 -2.724805 -0.427363
H   1.139742 -4.647231  1.780823
H   1.996530 -3.117150  1.521921
H   0.517102 -3.166351  3.986999
H   1.314986 -1.825849  3.132563
H  -0.619036 -1.333318  4.831099
H  -1.682622 -1.862064  3.512137
H  -1.887732  0.724223  4.511331
H  -2.622592  0.142776  3.003543
H  -2.663798  2.435831  2.795403
H  -1.275915  1.974608  1.805625
