128
rot3 MD seed: shuttle-scan global-min basin (tblite, grid 0.1, fmax 0.01); scan global min d=-0.67 A is 0.20 kcal below this geometry (d=-0.87 A)
C   5.840291 -3.472607 -3.807352
O   5.636549 -2.944381 -2.506975
C   5.371240 -1.629017 -2.445649
O   5.312570 -0.926620 -3.424481
C   5.153107 -1.162385 -1.053379
C   4.617986  0.109380 -0.870197
C   4.351266  0.586769  0.404783
C   3.637639  1.900575  0.594646
N   2.225147  1.688907  0.840313
C   1.464908  1.118003 -0.103550
O   1.932966  0.713822 -1.157988
C  -0.005105  1.024193  0.158171
C  -0.685125  1.895911  1.001841
C  -2.060469  1.821353  1.110506
C  -2.787700  0.897123  0.363892
C  -4.268274  0.908985  0.481940
O  -4.850414  1.267076  1.488370
N  -4.936075  0.534141 -0.641820
C  -6.379514  0.421017 -0.649241
C  -6.789338 -0.941292 -0.152712
C  -6.707431 -1.222602  1.207073
C  -6.992746 -2.497616  1.671355
C  -6.852527 -2.769844  3.146538
F  -7.466771 -1.842458  3.895262
F  -5.563187 -2.771140  3.530092
F  -7.353627 -3.955951  3.514017
C  -7.370922 -3.509336  0.799769
C  -7.457874 -3.216730 -0.552545
C  -7.840923 -4.283936 -1.542602
F  -8.276998 -5.408400 -0.967630
F  -8.808539 -3.873551 -2.379914
F  -6.800147 -4.632941 -2.322533
C  -7.164560 -1.945960 -1.032076
C  -2.103675  0.001135 -0.453598
C  -0.728056  0.064903 -0.550997
C   4.662664 -0.204732  1.498235
C   5.225880 -1.468231  1.324234
C   5.553277 -2.255648  2.537525
O   5.298228 -1.903102  3.663835
O   6.178492 -3.405536  2.254084
C   6.535492 -4.199646  3.373636
C   5.452110 -1.961410  0.045246
H   6.614400 -2.909456 -4.331480
H   6.142879 -4.506755 -3.670236
H   4.915869 -3.416886 -4.385247
H   4.388550  0.703561 -1.740630
H   4.049792  2.438124  1.447850
H   3.729597  2.503338 -0.312962
H   1.865274  1.851023  1.769672
H  -0.151347  2.659673  1.537909
H  -2.593962  2.495917  1.763080
H  -4.427601  0.177739 -1.434326
H  -6.761917  1.189917  0.027851
H  -6.749453  0.599009 -1.659721
H  -6.406798 -0.447486  1.897020
H  -7.592199 -4.499805  1.166240
H  -7.232308 -1.743701 -2.091245
H  -2.630606 -0.762952 -1.008090
H  -0.197682 -0.633153 -1.179170
H   4.476797  0.142271  2.504476
H   7.180313 -3.635483  4.050165
H   7.062447 -5.063251  2.979287
H   5.642859 -4.509331  3.919638
H   5.860282 -2.949227 -0.093858
C  -1.129385  2.713014  5.767023
C  -1.607719  1.450533  5.492967
C  -0.942026  0.638409  4.587748
C   0.197422  1.082187  3.937567
C   0.657576  2.395558  4.184585
C  -0.000586  3.183216  5.111926
O   1.761129  2.797209  3.465191
C   2.081118  4.168297  3.368551
C   1.006089  5.015851  2.660867
O   0.744594  4.602699  1.337762
C   1.359648  5.351717  0.315527
C   0.959877  4.760653 -1.037856
O   1.855704  3.727169 -1.372222
C   1.795950  3.273807 -2.704081
C   0.468663  2.615171 -3.101559
O   0.745026  1.714928 -4.160136
C  -0.379719  1.157953 -4.754099
C  -1.196940  1.983932 -5.521384
C  -2.342470  1.517517 -6.133073
C  -2.691009  0.185588 -5.980777
C  -1.877134 -0.653294 -5.251834
C  -0.702961 -0.203712 -4.635291
O  -0.025437 -1.178549 -3.983063
C   1.314522 -0.989809 -3.550955
C   1.750218 -2.245898 -2.802001
O   1.089079 -2.294665 -1.556195
C   1.539087 -3.311341 -0.692866
C   0.659651 -3.323418  0.576009
O   1.374576 -3.036875  1.758505
C   1.650890 -1.674030  1.996697
C   0.536135 -0.999046  2.810212
O   0.928039  0.335422  3.055585
H  -1.630219  3.350097  6.478521
H  -2.497213  1.082816  5.979820
H  -1.329183 -0.345851  4.385919
H   0.359503  4.173476  5.343495
H   2.283774  4.599298  4.358201
H   3.005001  4.191637  2.784074
H   1.324553  6.064684  2.688386
H   0.056044  4.919606  3.196965
H   1.015102  6.396025  0.371459
H   2.452570  5.327824  0.407927
H   0.993038  5.549795 -1.803753
H  -0.067541  4.381062 -0.962412
H   2.024164  4.095625 -3.398903
H   2.570883  2.508423 -2.782575
H   0.066313  2.066683 -2.239765
H  -0.272752  3.365317 -3.410937
H  -0.909760  3.020046 -5.630729
H  -2.953663  2.186733 -6.719092
H  -3.590702 -0.200198 -6.436582
H  -2.122175 -1.697579 -5.133594
H   1.410959 -0.142855 -2.872457
H   1.967437 -0.833579 -4.416837
H   2.836560 -2.196138 -2.646883
H   1.510077 -3.145843 -3.389162
H   1.479114 -4.285364 -1.201155
H   2.589141 -3.137859 -0.408174
H  -0.161678 -2.613619  0.427847
H   0.244253 -4.321219  0.738272
H   1.807982 -1.132750  1.059561
H   2.569326 -1.644061  2.588828
H  -0.413842 -1.022449  2.257787
H   0.418322 -1.551281  3.750269
