112
dethread1 threaded global-min station (rod-anchor GFN2-xTB dethread scan, tblite): d=-0.1870 A  E=-6034.673803 eV  atoms=112 (rod 1-48 + wheel 49-112)  charge=0 spin=1  source=output_files/dethread1_dethread_stations_tblite/d-0.19.xyz
O   31.878064  25.000771  26.336281
C   31.224813  25.748095  27.053611
N   31.822751  26.486689  28.001754
C   33.260010  26.404832  28.171586
C   34.001885  27.097587  27.051651
C   34.118536  28.481072  27.055258
C   34.767443  29.127535  26.014510
C   34.838216  30.628009  25.978746
F   34.629843  31.195865  27.175588
F   33.899195  31.147694  25.157000
F   36.013867  31.087193  25.534121
C   35.312349  28.416957  24.953496
C   35.197573  27.035855  24.955541
C   35.721006  26.248946  23.785978
F   36.071911  24.999354  24.111372
F   34.796563  26.141525  22.810561
F   36.795200  26.816198  23.219085
C   34.540238  26.378568  25.991783
C   29.739958  25.860148  26.931225
C   29.116080  27.087672  27.128393
C   27.772058  27.257510  26.874853
C   27.006475  26.172655  26.454531
C   25.574434  26.277727  26.179697
O   24.802090  25.379882  26.003739
O   25.166606  27.603442  26.122074
C   23.834607  27.831046  25.952249
C   23.382055  28.513753  24.822857
F   24.267101  28.938184  23.919925
C   22.028310  28.766161  24.631049
F   21.618383  29.426819  23.549119
C   21.100747  28.319829  25.568439
F   19.802516  28.553018  25.386131
C   21.536110  27.639524  26.702286
F   20.653047  27.229470  27.610867
C   22.893423  27.400720  26.890490
F   23.306252  26.785832  27.998522
C   27.613907  24.921785  26.317885
C   28.970466  24.770689  26.531436
H   31.290893  27.093065  28.608095
H   33.511622  26.861642  29.128870
H   33.549097  25.347890  28.184670
H   33.698462  29.047021  27.871868
H   35.819510  28.928985  24.149948
H   34.432005  25.304817  25.964785
H   29.723021  27.910805  27.446018
H   27.304036  28.222122  27.000775
H   27.007975  24.083969  26.010038
H   29.433807  23.809485  26.371569
C   26.351473  27.051184  30.181985
C   26.319792  25.676599  30.113178
C   27.503369  24.952610  30.094699
C   28.729591  25.596736  30.113383
C   28.757597  27.007454  30.184475
C   27.570229  27.714374  30.229772
O   30.014216  27.564709  30.206488
C   30.164599  28.943866  30.433167
C   29.972979  29.800972  29.175073
O   30.944640  29.396988  28.232756
C   31.053651  30.199361  27.077990
C   30.740799  29.501418  25.746520
O   31.506796  28.322630  25.629037
C   31.788384  27.903682  24.315878
C   30.569672  27.518104  23.474556
O   30.098985  26.263846  23.910585
C   28.846245  25.839196  23.510503
C   27.782436  26.715185  23.322700
C   26.516392  26.271701  22.990786
C   26.285927  24.916781  22.841515
C   27.327371  24.033780  23.023853
C   28.617909  24.459408  23.353910
O   29.491870  23.434478  23.483252
C   30.863642  23.566070  23.811479
C   31.343193  22.155998  24.194849
O   30.822326  21.686630  25.421568
C   31.632864  21.923748  26.557965
C   30.809244  21.519847  27.791187
O   31.421389  21.822025  29.030219
C   31.377662  23.168674  29.444953
C   30.014818  23.575611  30.033638
O   29.950533  24.987679  30.061699
H   25.433966  27.617712  30.204722
H   25.377001  25.154593  30.078033
H   27.448334  23.876761  30.072467
H   27.573732  28.790492  30.303791
H   29.493943  29.295978  31.224837
H   31.199441  29.057346  30.768649
H   30.115863  30.856024  29.448323
H   28.961033  29.677158  28.766078
H   30.398562  31.075208  27.154421
H   32.086972  30.559677  27.036751
H   31.003819  30.210950  24.948575
H   29.667506  29.277871  25.674838
H   32.343105  28.690152  23.781399
H   32.418634  27.021176  24.434063
H   29.808540  28.298787  23.560107
H   30.878063  27.450749  22.421020
H   27.930523  27.776480  23.447949
H   25.724531  26.989191  22.843916
H   25.304075  24.549978  22.586872
H   27.181375  22.971021  22.912021
H   31.022763  24.266530  24.631169
H   31.429351  23.908295  22.934441
H   32.439075  22.140000  24.205882
H   30.978248  21.455628  23.437443
H   32.550217  21.318212  26.506321
H   31.920009  22.978929  26.610125
H   29.817102  21.979085  27.708363
H   30.678580  20.435527  27.794872
H   31.600672  23.847019  28.617558
H   32.158856  23.269163  30.201521
H   29.233474  23.169850  29.380913
H   29.880609  23.163568  31.040692
