104
dethread2 threaded global-min station (rod-anchor GFN2-xTB dethread scan, tblite): d=-1.1179 A  E=-5568.153118 eV  atoms=104 (rod 1-48 + wheel 49-104)  charge=0 spin=1  source=output_files/dethread2_dethread_stations_tblite/d-1.12.xyz
O   31.891872  24.254570  25.124302
C   31.323764  25.321050  25.299230
N   31.959245  26.385196  25.832802
C   33.391471  26.336712  26.053553
C   34.128416  26.775424  24.812227
C   34.126632  28.118901  24.460846
C   34.713045  28.531010  23.276165
C   34.649497  29.975899  22.861547
F   34.238377  30.784555  23.847997
F   33.793541  30.160744  21.840454
F   35.835381  30.444969  22.448376
C   35.323836  27.618284  22.426919
C   35.331593  26.278238  22.787039
C   35.935552  25.281076  21.835787
F   36.157681  24.087902  22.394303
F   35.123915  25.062475  20.780150
F   37.103108  25.698191  21.328318
C   34.726272  25.852704  23.963538
C   29.883353  25.529138  24.954566
C   29.024266  26.301786  25.733968
C   27.701291  26.448415  25.361342
C   27.215095  25.827115  24.207365
C   25.824565  25.989565  23.762562
O   25.297656  25.441386  22.837813
O   25.157125  26.925015  24.531796
C   23.841869  27.151476  24.251496
C   23.432646  28.425617  23.856869
F   24.343122  29.394079  23.744512
C   22.095697  28.697828  23.590341
F   21.722132  29.923495  23.225998
C   21.148103  27.683267  23.698620
F   19.867164  27.937652  23.440112
C   21.542023  26.405730  24.087165
F   20.634862  25.439296  24.206329
C   22.880736  26.144847  24.363027
F   23.246617  24.931615  24.771181
C   28.071564  25.044129  23.437541
C   29.390621  24.896041  23.814778
H   31.513291  27.296713  25.809043
H   33.639778  26.989582  26.893862
H   33.651648  25.302502  26.295106
H   33.656535  28.841474  25.107448
H   35.785392  27.944649  21.507163
H   34.714924  24.802566  24.215537
H   29.384130  26.785387  26.629207
H   27.037014  27.048418  25.962913
H   27.697965  24.567119  22.545080
H   30.041793  24.298051  23.203203
C   31.243191  27.918971  28.794794
C   31.388493  29.158885  27.911208
O   30.786831  28.873005  26.664768
C   30.871444  29.923007  25.728707
C   30.336366  29.432155  24.384244
O   31.197837  28.445641  23.848251
C   30.731836  27.937199  22.613100
C   31.624334  26.783264  22.147331
O   30.828412  25.912576  21.380079
C   31.516398  24.880529  20.702685
C   32.004830  23.722051  21.582613
O   30.920092  22.892959  21.942800
C   31.242521  22.003540  23.007381
C   29.966516  21.383923  23.609099
O   30.147145  21.043736  24.970431
C   29.657783  21.957563  25.938853
C   30.609089  21.962524  27.153919
O   29.955049  22.191241  28.390325
C   29.736179  23.525327  28.790209
C   30.940781  24.144276  29.511980
O   30.508744  25.369890  30.063726
C   31.386545  25.960229  30.995717
C   32.558277  26.727327  30.361925
O   32.204368  27.982145  29.827893
H   31.410416  27.029212  28.175439
H   30.228972  27.857290  29.206419
H   32.457497  29.383726  27.781352
H   30.914379  30.030885  28.378712
H   30.271982  30.781345  26.061282
H   31.913190  30.254689  25.614426
H   30.266163  30.285724  23.695747
H   29.331645  29.009422  24.527869
H   29.711409  27.544836  22.724640
H   30.713916  28.737073  21.861292
H   32.471372  27.155522  21.552551
H   32.030186  26.279873  23.034386
H   30.789976  24.487261  19.988697
H   32.379352  25.293866  20.162459
H   32.752753  23.144938  21.019350
H   32.493865  24.114540  22.486481
H   31.917898  21.218033  22.644245
H   31.752271  22.551889  23.808922
H   29.134265  22.083013  23.479196
H   29.717304  20.454008  23.090495
H   29.569194  22.961372  25.514897
H   28.663998  21.628413  26.279061
H   31.422638  22.674243  26.984733
H   31.030977  20.957705  27.235952
H   28.900394  23.492449  29.493569
H   29.453149  24.160527  27.941339
H   31.275009  23.461481  30.305799
H   31.774211  24.291505  28.809546
H   30.775736  26.661423  31.570314
H   31.790066  25.196401  31.674445
H   33.301182  26.948959  31.130467
H   33.022071  26.102887  29.583172
