144
rotaxane at right well d=+10.10 A; E_rel=+4.97 kcal/mol; barrier=4.3 kcal/mol (scan-relaxed, MD-ready)
O   12.192943 -3.025065 -1.722753
C   11.882235 -1.859966 -1.534567
C   10.458722 -1.494387 -1.217043
C   9.949897 -0.222861 -0.994943
F   10.764868  0.862963 -1.053468
C   8.626365  0.021350 -0.700484
C   9.549484 -2.547514 -1.126202
C   8.217906 -2.334099 -0.832048
C   7.735185 -1.042794 -0.614791
C   6.304418 -0.808732 -0.312551
C   5.606015 -1.673147  0.527661
C   4.258497 -1.482018  0.776308
C   5.619273  0.264063 -0.877855
C   4.269486  0.451415 -0.632047
C   3.563866 -0.425716  0.189074
C   2.105022 -0.269978  0.396073
C   1.516279  0.984027  0.543211
C   0.143981  1.112799  0.686879
C   1.277950 -1.391732  0.413388
C  -0.091477 -1.262893  0.553897
C  -0.683503 -0.008045  0.684167
C  -2.158372  0.119768  0.764647
C  -2.948954 -0.743746  0.014568
C  -4.323105 -0.619325  0.048791
F  -5.061469 -1.409507 -0.731234
C  -4.952578  0.339438  0.826185
C  -6.446100  0.423865  0.806083
N  -6.910130  1.680238  0.639370
C  -8.319697  1.962902  0.548594
C  -8.714938  2.321970 -0.864343
C  -8.340005  1.475914 -1.910523
C  -8.650975  1.807187 -3.212863
C  -8.252326  0.912577 -4.354173
F  -9.328977  0.474329 -5.034126
F  -7.567735 -0.162705 -3.949578
F  -7.479928  1.570047 -5.243679
C  -9.340851  2.980781 -3.508820
C  -9.717681  3.807540 -2.472502
C  -10.468484  5.081959 -2.734382
F  -9.867242  6.135800 -2.145947
F  -10.570729  5.360113 -4.040911
F  -11.719371  5.029997 -2.237989
C  -9.408382  3.480938 -1.153093
O  -7.168008 -0.559140  0.870915
C  -4.152693  1.208473  1.565529
C  -2.774020  1.101287  1.543887
N   12.797355 -0.863961 -1.604780
C   14.200544 -1.184267 -1.805689
C   14.856381 -1.699270 -0.544182
C   14.954815 -3.064096 -0.301764
C   15.517640 -3.521346  0.880179
C   15.577582 -5.001443  1.140524
F   14.409250 -5.466945  1.620343
F   15.844125 -5.694521  0.021468
F   16.523430 -5.315914  2.041948
C   15.981711 -2.634964  1.838938
C   15.880549 -1.275975  1.594615
C   16.419563 -0.285488  2.587553
F   15.621424  0.792055  2.699468
F   17.633431  0.171593  2.221707
F   16.552222 -0.814911  3.812699
C   15.327168 -0.809715  0.411461
H   8.311702  1.040160 -0.518006
H   9.931409 -3.543596 -1.303642
H   7.535946 -3.173056 -0.792808
H   6.128479 -2.491999  1.006662
H   3.739041 -2.154135  1.447750
H   6.137522  0.934924 -1.552181
H   3.746161  1.265818 -1.117361
H   2.139074  1.870235  0.548995
H  -0.292585  2.099979  0.777223
H   1.709977 -2.376661  0.286432
H  -0.714140 -2.148764  0.554448
H  -2.525947 -1.498508 -0.630099
H  -6.256825  2.446632  0.737094
H  -8.583361  2.765678  1.239279
H  -8.849392  1.062203  0.863028
H  -7.800710  0.561852 -1.692227
H  -9.570794  3.239979 -4.532972
H  -9.705216  4.149557 -0.352743
H  -4.631685  1.955672  2.181379
H  -2.174283  1.768747  2.149792
H   12.526703  0.076555 -1.380830
H   14.701234 -0.278628 -2.146874
H   14.273187 -1.932407 -2.593755
H   14.573126 -3.763674 -1.033155
H   16.417366 -2.997489  2.758669
H   15.261128  0.258234  0.237920
O  -5.282287  4.131643  0.576118
C  -5.336917  4.155895 -0.846054
C  -4.130170  3.383120 -1.361736
O  -4.322856  3.028182 -2.717609
C  -4.590386  1.649080 -2.922005
C  -3.294850  0.866531 -3.070132
O  -3.620035 -0.504661 -3.121717
C  -2.536825 -1.320742 -3.514074
C  -2.895004 -2.773295 -3.294300
O  -2.667913 -3.106819 -1.939955
C  -3.154469 -4.377181 -1.559003
C  -3.075408 -4.503665 -0.054418
O  -4.175083 -3.840977  0.523805
C  -4.048535 -3.618004  1.912910
C  -5.407411 -3.180402  2.439476
O  -5.302969 -2.765826  3.795947
C  -5.043623 -1.382596  3.942489
C  -6.339591 -0.588414  4.080540
O  -6.045314  0.787535  3.855654
C  -6.643034  1.696289  4.750986
C  -6.243511  3.099855  4.376970
O  -6.620278  3.436818  3.055196
C  -6.165795  4.730115  2.700460
C  -6.264598  4.932120  1.207323
H  -6.256309  3.674936 -1.204131
H  -5.331535  5.188621 -1.211385
H  -3.987945  2.496970 -0.736399
H  -3.227834  3.993804 -1.283050
H  -5.180660  1.564703 -3.834339
H  -5.180830  1.233665 -2.096046
H  -2.781164  1.185594 -3.986414
H  -2.627426  1.070669 -2.219830
H  -2.307171 -1.151622 -4.574440
H  -1.637293 -1.079975 -2.930311
H  -2.280128 -3.408115 -3.945980
H  -3.948977 -2.924565 -3.555400
H  -4.198150 -4.496734 -1.872267
H  -2.555424 -5.167086 -2.031589
H  -2.128439 -4.067536  0.292981
H  -3.077952 -5.564846  0.228770
H  -3.298456 -2.836814  2.105697
H  -3.725123 -4.529765  2.431755
H  -5.818820 -2.387822  1.807177
H  -6.101415 -4.020892  2.409875
H  -4.479702 -0.993678  3.089979
H  -4.427884 -1.254967  4.835383
H  -6.765644 -0.735664  5.077724
H  -7.065232 -0.931698  3.338204
H  -7.736683  1.599517  4.718815
H  -6.317078  1.512622  5.782977
H  -6.701530  3.794690  5.093974
H  -5.152643  3.196095  4.472786
H  -5.117494  4.856429  3.000183
H  -6.760299  5.498394  3.211793
H  -6.099621  5.990973  0.974591
H  -7.267244  4.662983  0.849232
